results/filo/x-long/X-n157-k13.vrp_seed-6.vrp.sol
Route #1: 17 67 4 35 6 115 55 95 105 152 56 61
Route #2: 88 57 2 119 81 89 112 136 76 153 5 47
Route #3: 38 122 69 99 93 36 68 20 75 118 147 15
Route #4: 143 32 42 3 106 73 135 21 121 54 110 41
Route #5: 16 103 65 87 97 62 142 128 26 120 14 49
Route #6: 71 149 8 150 156 24 43 141 64 63 13 148
Route #7: 151 113 82 11 77 45 83 90 51 100 91 129
Route #8: 37 116 19 46 145 127 104 130 124 44 27 101
Route #9: 18 107 52 134 10 39 58 29 114 109 60 12
Route #10: 70 139 125 78 146 80 40 108 9 117 1 126
Route #11: 59 96 102 111 132 86 94 66 28 7 137 92
Route #12: 34 138 25 155 22 30 74 79 84 33 48 72
Route #13: 23 31 140 85 144 53 123 98 154 50 133 131
Cost 16876.000000